198 21967
1 2 7 6 3 4 5 8 9 10 11 12 13 58 69 71 85 86 100 99 98 97 122 154 155 156 157 158 159 160 161 153 162 152 146 149 148 147 143 131 124 120 119 118 117 113 112 114 105 91 92 79 80 93 102 94 95 81 76 77 78 64 50 51 47 39 52 65 62 53 46 36 37 45 54 61 66 74 83 88 82 75 89 90 96 101 103 104 115 116 121 123 139 138 140 142 141 145 144 150 151 163 164 165 166 172 137 129 109 110 111 107 106 63 49 48 35 24 22 23 18 19 20 176 175 178 185 187 186 193 192 191 188 189 190 171 128 170 127 133 135 136 132 134 130 126 125 169 108 167 168 182 183 181 177 180 184 179 194 195 196 197 198 174 173 25 21 26 27 28 34 33 30 29 32 31 38 44 59 67 68 72 73 84 87 70 60 56 55 43 42 57 41 40 14 15 17 16 
